% File represents an instance of a Composite Structure problem to be solved by a CP framework
% Created on 2025-03-12 21:57:58.217
T = 60;
n = 24;
m = 38;
R = 4;
root = [1, 2, 3, 4];
thickness = [60, 60, 60, 60, 50, 46, 46, 42, 42, 40, 38, 38, 38, 36, 34, 34, 34, 30, 30, 30, 30, 26, 26, 22];
edges = [(1, 5), (1, 2), (2, 6), (5, 6), (5, 7), (7, 9), (6, 9), (6, 8), (3, 8), (3, 2), (3, 4), (4, 11), (8, 11), (8, 12), (9, 12), (12, 15), (11, 15), (7, 10), (9, 13), (12, 16), (15, 18), (16, 18), (13, 16), (10, 13), (14, 17), (19, 22), (17, 19), (20, 21), (21, 23), (23, 24), (10, 14), (14, 20), (17, 21), (13, 17), (16, 19), (19, 23), (22, 24), (18, 22)];
counts = [|18, 12, 18, 12|18, 12, 18, 12|18, 12, 18, 12|18, 12, 18, 12|];
